Data/raw/Instances1.0/in4 - small.txt
9 19 10

5229 2882 7153 1097 5688 6307 3468 3224 5161

1871 611 5131 7026 6564 3454 734 901 1233 799 4034 3722 4330 6359 4462 178 1874 6229 4666
7092 3293 1567 3672 5026 71 3620 3214 5229 7088 6437 2890 1458 5900 6872 7336 4963 2825 569
4715 4058 220 1248 6631 3401 6458 2444 3578 7183 1173 7096 5626 4465 14 1798 1990 85 5417
4055 5313 3856 1844 702 5314 6595 73 5149 2909 1750 4569 123 5807 3640 222 3789 7041 6679
6232 3118 5213 7404 1565 3338 3220 1579 3987 4062 1663 1904 6968 5827 5759 1311 5381 2424 6757
4305 6424 2165 6054 2345 2287 4360 5984 2508 7000 5524 538 5732 7494 5750 5635 1558 440 207
1988 4426 4268 2502 5181 3735 829 3440 3898 6209 4715 3154 3013 2491 5319 419 4835 6457 4778
2170 1465 3130 6546 854 1361 5391 5456 5847 5800 5895 6053 288 1672 2820 2789 6853 5407 2469
1644 656 29 5210 2661 1894 200 6831 2312 3886 5788 5941 6056 6104 1570 3953 6957 2930 1843

6 8  142
15 11  6781
3 10  922
7 0  3390
9 10  2271
14 3  4164
12 16  6475
18 8  4915
6 1  5337
11 16  766